words_hard_train/1832.qaiger
aag 143 16 0 1 127
2
4
8
16
26
34
46
54
66
74
86
94
198
206
240
242
287
6 2 4
10 4 8
12 5 9
14 11 13
18 14 16
20 7 19
22 15 17
24 21 23
28 13 26
30 12 27
32 29 31
36 33 35
38 32 34
40 37 39
42 24 40
44 43 39
48 31 46
50 30 47
52 49 51
56 53 55
58 52 54
60 57 59
62 45 60
64 63 59
68 51 66
70 50 67
72 69 71
76 73 75
78 72 74
80 77 79
82 65 80
84 83 79
88 71 86
90 70 87
92 89 91
96 93 95
98 92 94
100 97 99
102 84 101
104 85 100
106 103 105
108 25 41
110 109 43
112 106 110
114 44 61
116 115 63
118 64 81
120 119 83
122 116 120
124 112 122
126 20 23
128 3 5
130 126 129
132 130 111
134 132 122
136 107 134
138 125 137
140 131 111
142 141 122
144 143 107
146 138 145
148 110 116
150 149 121
152 148 120
154 151 153
156 155 74
158 111 117
160 159 149
162 17 8
164 163 21
166 165 35
168 164 34
170 169 111
172 167 171
174 172 54
176 160 175
178 173 55
180 177 179
182 157 181
184 154 75
186 183 185
188 186 94
190 147 189
192 187 95
194 191 193
196 105 99
200 91 198
202 90 199
204 201 203
208 205 207
210 204 206
212 209 211
214 196 213
216 197 212
218 215 217
220 218 145
222 219 144
224 221 223
226 225 137
228 224 136
230 227 229
232 231 207
234 194 233
236 230 206
238 235 237
244 240 242
246 241 243
248 245 247
250 248 203
252 249 202
254 251 253
256 217 211
258 255 257
260 254 256
262 259 261
264 263 222
266 262 223
268 265 267
270 238 269
272 228 241
274 270 273
276 239 268
278 272 276
280 275 279
282 277 229
284 282 240
286 280 285
i0 2 y1[0]
i1 1 x1[7]
i2 1 x1[6]
i3 2 y1[1]
i4 1 x1[5]
i5 2 y1[2]
i6 1 x1[4]
i7 2 y1[3]
i8 1 x1[3]
i9 2 y1[4]
i10 1 x1[2]
i11 2 y1[5]
i12 1 x1[1]
i13 2 y1[6]
i14 2 y1[7]
i15 1 x1[0]
o0 bv[0]
c
simplified
  >
    subtract
      subtract
        2 y1
        reverse
          1 x1
      -229
    2 y1
