words_hard_train/1832.qaiger.qdimacs
p cnf 143 382
a 33 2 99 4 43 13 23 121 0
e 1 3 5 6 7 8 9 10 11 12 14 15 16 17 18 19 20 21 22 24 25 26 27 28 29 30 31 32 34 35 36 37 38 39 40 41 42 44 45 46 47 48 49 50 51 52 53 54 55 56 57 58 59 60 61 62 63 64 65 66 67 68 69 70 71 72 73 74 75 76 77 78 79 80 81 82 83 84 85 86 87 88 89 90 91 92 93 94 95 96 97 98 100 101 102 103 104 105 106 107 108 109 110 111 112 113 114 115 116 117 118 119 120 122 123 124 125 126 127 128 129 130 131 132 133 134 135 136 137 138 139 140 141 142 143 0
-1 -2 3 0
1 -3 0
2 -3 0
-2 -4 5 0
2 -5 0
4 -5 0
2 4 6 0
-2 -6 0
-4 -6 0
5 6 7 0
-5 -7 0
-6 -7 0
-7 -8 9 0
7 -9 0
8 -9 0
3 9 10 0
-3 -10 0
-9 -10 0
7 8 11 0
-7 -11 0
-8 -11 0
10 11 12 0
-10 -12 0
-11 -12 0
6 -13 14 0
-6 -14 0
13 -14 0
-6 13 15 0
6 -15 0
-13 -15 0
14 15 16 0
-14 -16 0
-15 -16 0
16 17 18 0
-16 -18 0
-17 -18 0
-16 -17 19 0
16 -19 0
17 -19 0
18 19 20 0
-18 -20 0
-19 -20 0
-12 -20 21 0
12 -21 0
20 -21 0
21 19 22 0
-21 -22 0
-19 -22 0
15 -23 24 0
-15 -24 0
23 -24 0
-15 23 25 0
15 -25 0
-23 -25 0
24 25 26 0
-24 -26 0
-25 -26 0
26 27 28 0
-26 -28 0
-27 -28 0
-26 -27 29 0
26 -29 0
27 -29 0
28 29 30 0
-28 -30 0
-29 -30 0
22 -30 31 0
-22 -31 0
30 -31 0
31 29 32 0
-31 -32 0
-29 -32 0
25 -33 34 0
-25 -34 0
33 -34 0
-25 33 35 0
25 -35 0
-33 -35 0
34 35 36 0
-34 -36 0
-35 -36 0
36 37 38 0
-36 -38 0
-37 -38 0
-36 -37 39 0
36 -39 0
37 -39 0
38 39 40 0
-38 -40 0
-39 -40 0
32 -40 41 0
-32 -41 0
40 -41 0
41 39 42 0
-41 -42 0
-39 -42 0
35 -43 44 0
-35 -44 0
43 -44 0
-35 43 45 0
35 -45 0
-43 -45 0
44 45 46 0
-44 -46 0
-45 -46 0
46 47 48 0
-46 -48 0
-47 -48 0
-46 -47 49 0
46 -49 0
47 -49 0
48 49 50 0
-48 -50 0
-49 -50 0
-42 50 51 0
42 -51 0
-50 -51 0
42 -50 52 0
-42 -52 0
50 -52 0
51 52 53 0
-51 -53 0
-52 -53 0
12 20 54 0
-12 -54 0
-20 -54 0
54 21 55 0
-54 -55 0
-21 -55 0
-53 -55 56 0
53 -56 0
55 -56 0
-22 30 57 0
22 -57 0
-30 -57 0
57 31 58 0
-57 -58 0
-31 -58 0
-32 40 59 0
32 -59 0
-40 -59 0
59 41 60 0
-59 -60 0
-41 -60 0
-58 -60 61 0
58 -61 0
60 -61 0
-56 -61 62 0
56 -62 0
61 -62 0
-10 11 63 0
10 -63 0
-11 -63 0
1 2 64 0
-1 -64 0
-2 -64 0
-63 64 65 0
63 -65 0
-64 -65 0
-65 55 66 0
65 -66 0
-55 -66 0
-66 -61 67 0
66 -67 0
61 -67 0
53 -67 68 0
-53 -68 0
67 -68 0
62 68 69 0
-62 -69 0
-68 -69 0
65 55 70 0
-65 -70 0
-55 -70 0
70 -61 71 0
-70 -71 0
61 -71 0
71 53 72 0
-71 -72 0
-53 -72 0
-69 72 73 0
69 -73 0
-72 -73 0
-55 -58 74 0
55 -74 0
58 -74 0
74 60 75 0
-74 -75 0
-60 -75 0
-74 -60 76 0
74 -76 0
60 -76 0
75 76 77 0
-75 -77 0
-76 -77 0
77 -37 78 0
-77 -78 0
37 -78 0
55 58 79 0
-55 -79 0
-58 -79 0
79 74 80 0
-79 -80 0
-74 -80 0
8 -4 81 0
-8 -81 0
4 -81 0
81 10 82 0
-81 -82 0
-10 -82 0
82 17 83 0
-82 -83 0
-17 -83 0
-82 -17 84 0
82 -84 0
17 -84 0
84 55 85 0
-84 -85 0
-55 -85 0
83 85 86 0
-83 -86 0
-85 -86 0
-86 -27 87 0
86 -87 0
27 -87 0
-80 87 88 0
80 -88 0
-87 -88 0
86 27 89 0
-86 -89 0
-27 -89 0
88 89 90 0
-88 -90 0
-89 -90 0
78 90 91 0
-78 -91 0
-90 -91 0
-77 37 92 0
77 -92 0
-37 -92 0
91 92 93 0
-91 -93 0
-92 -93 0
-93 -47 94 0
93 -94 0
47 -94 0
73 94 95 0
-73 -95 0
-94 -95 0
93 47 96 0
-93 -96 0
-47 -96 0
95 96 97 0
-95 -97 0
-96 -97 0
52 49 98 0
-52 -98 0
-49 -98 0
45 -99 100 0
-45 -100 0
99 -100 0
-45 99 101 0
45 -101 0
-99 -101 0
100 101 102 0
-100 -102 0
-101 -102 0
102 103 104 0
-102 -104 0
-103 -104 0
-102 -103 105 0
102 -105 0
103 -105 0
104 105 106 0
-104 -106 0
-105 -106 0
-98 106 107 0
98 -107 0
-106 -107 0
98 -106 108 0
-98 -108 0
106 -108 0
107 108 109 0
-107 -109 0
-108 -109 0
-109 72 110 0
109 -110 0
-72 -110 0
109 -72 111 0
-109 -111 0
72 -111 0
110 111 112 0
-110 -112 0
-111 -112 0
112 68 113 0
-112 -113 0
-68 -113 0
-112 -68 114 0
112 -114 0
68 -114 0
113 114 115 0
-113 -115 0
-114 -115 0
115 103 116 0
-115 -116 0
-103 -116 0
-97 116 117 0
97 -117 0
-116 -117 0
-115 -103 118 0
115 -118 0
103 -118 0
117 118 119 0
-117 -119 0
-118 -119 0
-120 -121 122 0
120 -122 0
121 -122 0
120 121 123 0
-120 -123 0
-121 -123 0
122 123 124 0
-122 -124 0
-123 -124 0
-124 101 125 0
124 -125 0
-101 -125 0
124 -101 126 0
-124 -126 0
101 -126 0
125 126 127 0
-125 -127 0
-126 -127 0
108 105 128 0
-108 -128 0
-105 -128 0
127 128 129 0
-127 -129 0
-128 -129 0
-127 -128 130 0
127 -130 0
128 -130 0
129 130 131 0
-129 -131 0
-130 -131 0
131 -111 132 0
-131 -132 0
111 -132 0
-131 111 133 0
131 -133 0
-111 -133 0
132 133 134 0
-132 -134 0
-133 -134 0
-119 134 135 0
119 -135 0
-134 -135 0
-114 120 136 0
114 -136 0
-120 -136 0
-135 136 137 0
135 -137 0
-136 -137 0
119 -134 138 0
-119 -138 0
134 -138 0
-136 -138 139 0
136 -139 0
138 -139 0
137 139 140 0
-137 -140 0
-139 -140 0
138 114 141 0
-138 -141 0
-114 -141 0
-141 -120 142 0
141 -142 0
120 -142 0
-140 142 143 0
140 -143 0
-142 -143 0
-143 0
